p cnf 386 460
-13 4 9 21 22 0
-13 4 9 21 -22 0
-13 4 9 -21 23 0
-13 4 9 -21 -23 0
-4 -14 -5 24 25 0
-4 -14 -5 24 -25 0
-4 -14 -5 -24 26 0
-4 -14 -5 -24 -26 0
-15 -9 -8 27 28 0
-15 -9 -8 27 -28 0
-15 -9 -8 -27 29 0
-15 -9 -8 -27 -29 0
20 10 6 30 31 0
20 10 6 30 -31 0
20 10 6 -30 32 0
20 10 6 -30 -32 0
-16 -7 17 33 34 0
-16 -7 17 33 -34 0
-16 -7 17 -33 35 0
-16 -7 17 -33 -35 0
-9 -13 10 36 37 0
-9 -13 10 36 -37 0
-9 -13 10 -36 38 0
-9 -13 10 -36 -38 0
-6 10 8 39 40 0
-6 10 8 39 -40 0
-6 10 8 -39 41 0
-6 10 8 -39 -41 0
-11 -1 -16 42 43 0
-11 -1 -16 42 -43 0
-11 -1 -16 -42 44 0
-11 -1 -16 -42 -44 0
-17 1 3 45 46 0
-17 1 3 45 -46 0
-17 1 3 -45 47 0
-17 1 3 -45 -47 0
-15 11 6 48 49 0
-15 11 6 48 -49 0
-15 11 6 -48 50 0
-15 11 6 -48 -50 0
-3 -16 -15 51 52 0
-3 -16 -15 51 -52 0
-3 -16 -15 -51 53 0
-3 -16 -15 -51 -53 0
-8 -6 16 54 55 0
-8 -6 16 54 -55 0
-8 -6 16 -54 56 0
-8 -6 16 -54 -56 0
-14 -9 4 57 58 0
-14 -9 4 57 -58 0
-14 -9 4 -57 59 0
-14 -9 4 -57 -59 0
7 20 -3 60 61 0
7 20 -3 60 -61 0
7 20 -3 -60 62 0
7 20 -3 -60 -62 0
-2 15 17 63 64 0
-2 15 17 63 -64 0
-2 15 17 -63 65 0
-2 15 17 -63 -65 0
-19 8 -17 66 67 0
-19 8 -17 66 -67 0
-19 8 -17 -66 68 0
-19 8 -17 -66 -68 0
13 14 -1 69 70 0
13 14 -1 69 -70 0
13 14 -1 -69 71 0
13 14 -1 -69 -71 0
-14 2 -17 72 73 0
-14 2 -17 72 -73 0
-14 2 -17 -72 74 0
-14 2 -17 -72 -74 0
19 2 -20 75 76 0
19 2 -20 75 -76 0
19 2 -20 -75 77 0
19 2 -20 -75 -77 0
7 1 8 78 79 0
7 1 8 78 -79 0
7 1 8 -78 80 0
7 1 8 -78 -80 0
-20 -13 6 81 82 0
-20 -13 6 81 -82 0
-20 -13 6 -81 83 0
-20 -13 6 -81 -83 0
-5 -12 -2 84 85 0
-5 -12 -2 84 -85 0
-5 -12 -2 -84 86 0
-5 -12 -2 -84 -86 0
5 -20 -18 87 88 0
5 -20 -18 87 -88 0
5 -20 -18 -87 89 0
5 -20 -18 -87 -89 0
-19 -10 20 90 91 0
-19 -10 20 90 -91 0
-19 -10 20 -90 92 0
-19 -10 20 -90 -92 0
-9 1 -6 93 94 0
-9 1 -6 93 -94 0
-9 1 -6 -93 95 0
-9 1 -6 -93 -95 0
-5 -2 3 96 97 0
-5 -2 3 96 -97 0
-5 -2 3 -96 98 0
-5 -2 3 -96 -98 0
-11 19 -13 99 100 0
-11 19 -13 99 -100 0
-11 19 -13 -99 101 0
-11 19 -13 -99 -101 0
9 -15 11 102 103 0
9 -15 11 102 -103 0
9 -15 11 -102 104 0
9 -15 11 -102 -104 0
5 -15 12 105 106 0
5 -15 12 105 -106 0
5 -15 12 -105 107 0
5 -15 12 -105 -107 0
-10 -1 7 108 109 0
-10 -1 7 108 -109 0
-10 -1 7 -108 110 0
-10 -1 7 -108 -110 0
6 -1 11 111 112 0
6 -1 11 111 -112 0
6 -1 11 -111 113 0
6 -1 11 -111 -113 0
9 -1 -3 114 115 0
9 -1 -3 114 -115 0
9 -1 -3 -114 116 0
9 -1 -3 -114 -116 0
12 2 8 117 118 0
12 2 8 117 -118 0
12 2 8 -117 119 0
12 2 8 -117 -119 0
-4 -12 18 120 121 0
-4 -12 18 120 -121 0
-4 -12 18 -120 122 0
-4 -12 18 -120 -122 0
2 -5 11 123 124 0
2 -5 11 123 -124 0
2 -5 11 -123 125 0
2 -5 11 -123 -125 0
16 -5 -6 126 127 0
16 -5 -6 126 -127 0
16 -5 -6 -126 128 0
16 -5 -6 -126 -128 0
-11 2 -17 129 130 0
-11 2 -17 129 -130 0
-11 2 -17 -129 131 0
-11 2 -17 -129 -131 0
-6 -15 -13 132 133 0
-6 -15 -13 132 -133 0
-6 -15 -13 -132 134 0
-6 -15 -13 -132 -134 0
-17 -1 11 135 136 0
-17 -1 11 135 -136 0
-17 -1 11 -135 137 0
-17 -1 11 -135 -137 0
-5 18 11 138 139 0
-5 18 11 138 -139 0
-5 18 11 -138 140 0
-5 18 11 -138 -140 0
1 14 7 141 142 0
1 14 7 141 -142 0
1 14 7 -141 143 0
1 14 7 -141 -143 0
-18 8 20 144 145 0
-18 8 20 144 -145 0
-18 8 20 -144 146 0
-18 8 20 -144 -146 0
-17 5 3 147 148 0
-17 5 3 147 -148 0
-17 5 3 -147 149 0
-17 5 3 -147 -149 0
7 -3 -13 150 151 0
7 -3 -13 150 -151 0
7 -3 -13 -150 152 0
7 -3 -13 -150 -152 0
7 -16 -8 153 154 0
7 -16 -8 153 -154 0
7 -16 -8 -153 155 0
7 -16 -8 -153 -155 0
2 1 -11 156 157 0
2 1 -11 156 -157 0
2 1 -11 -156 158 0
2 1 -11 -156 -158 0
-11 -5 -10 159 160 0
-11 -5 -10 159 -160 0
-11 -5 -10 -159 161 0
-11 -5 -10 -159 -161 0
13 -19 2 162 163 0
13 -19 2 162 -163 0
13 -19 2 -162 164 0
13 -19 2 -162 -164 0
-10 -2 -16 165 166 0
-10 -2 -16 165 -166 0
-10 -2 -16 -165 167 0
-10 -2 -16 -165 -167 0
-17 -16 -2 168 169 0
-17 -16 -2 168 -169 0
-17 -16 -2 -168 170 0
-17 -16 -2 -168 -170 0
20 16 9 171 172 0
20 16 9 171 -172 0
20 16 9 -171 173 0
20 16 9 -171 -173 0
18 7 10 174 175 0
18 7 10 174 -175 0
18 7 10 -174 176 0
18 7 10 -174 -176 0
7 -15 2 177 178 0
7 -15 2 177 -178 0
7 -15 2 -177 179 0
7 -15 2 -177 -179 0
13 -7 4 180 181 0
13 -7 4 180 -181 0
13 -7 4 -180 182 0
13 -7 4 -180 -182 0
2 -15 -19 183 184 0
2 -15 -19 183 -184 0
2 -15 -19 -183 185 0
2 -15 -19 -183 -185 0
1 -12 -9 186 187 0
1 -12 -9 186 -187 0
1 -12 -9 -186 188 0
1 -12 -9 -186 -188 0
15 16 -18 189 190 0
15 16 -18 189 -190 0
15 16 -18 -189 191 0
15 16 -18 -189 -191 0
8 -10 -15 192 193 0
8 -10 -15 192 -193 0
8 -10 -15 -192 194 0
8 -10 -15 -192 -194 0
-11 -19 -15 195 196 0
-11 -19 -15 195 -196 0
-11 -19 -15 -195 197 0
-11 -19 -15 -195 -197 0
20 10 17 198 199 0
20 10 17 198 -199 0
20 10 17 -198 200 0
20 10 17 -198 -200 0
-3 -13 19 201 202 0
-3 -13 19 201 -202 0
-3 -13 19 -201 203 0
-3 -13 19 -201 -203 0
6 7 -10 204 205 0
6 7 -10 204 -205 0
6 7 -10 -204 206 0
6 7 -10 -204 -206 0
-20 -6 19 207 208 0
-20 -6 19 207 -208 0
-20 -6 19 -207 209 0
-20 -6 19 -207 -209 0
10 11 8 210 211 0
10 11 8 210 -211 0
10 11 8 -210 212 0
10 11 8 -210 -212 0
-15 -5 -10 213 214 0
-15 -5 -10 213 -214 0
-15 -5 -10 -213 215 0
-15 -5 -10 -213 -215 0
10 13 4 216 217 0
10 13 4 216 -217 0
10 13 4 -216 218 0
10 13 4 -216 -218 0
-8 -7 -19 219 220 0
-8 -7 -19 219 -220 0
-8 -7 -19 -219 221 0
-8 -7 -19 -219 -221 0
-17 13 -1 222 223 0
-17 13 -1 222 -223 0
-17 13 -1 -222 224 0
-17 13 -1 -222 -224 0
-4 -14 -7 225 226 0
-4 -14 -7 225 -226 0
-4 -14 -7 -225 227 0
-4 -14 -7 -225 -227 0
19 13 -20 228 229 0
19 13 -20 228 -229 0
19 13 -20 -228 230 0
19 13 -20 -228 -230 0
20 -19 6 231 232 0
20 -19 6 231 -232 0
20 -19 6 -231 233 0
20 -19 6 -231 -233 0
13 7 11 234 235 0
13 7 11 234 -235 0
13 7 11 -234 236 0
13 7 11 -234 -236 0
-1 17 6 237 238 0
-1 17 6 237 -238 0
-1 17 6 -237 239 0
-1 17 6 -237 -239 0
-20 -14 9 240 241 0
-20 -14 9 240 -241 0
-20 -14 9 -240 242 0
-20 -14 9 -240 -242 0
-10 -5 -3 243 244 0
-10 -5 -3 243 -244 0
-10 -5 -3 -243 245 0
-10 -5 -3 -243 -245 0
18 -12 2 246 247 0
18 -12 2 246 -247 0
18 -12 2 -246 248 0
18 -12 2 -246 -248 0
14 17 1 249 250 0
14 17 1 249 -250 0
14 17 1 -249 251 0
14 17 1 -249 -251 0
-11 -1 2 252 253 0
-11 -1 2 252 -253 0
-11 -1 2 -252 254 0
-11 -1 2 -252 -254 0
18 17 16 255 256 0
18 17 16 255 -256 0
18 17 16 -255 257 0
18 17 16 -255 -257 0
-11 17 14 258 259 0
-11 17 14 258 -259 0
-11 17 14 -258 260 0
-11 17 14 -258 -260 0
-13 17 -11 261 262 0
-13 17 -11 261 -262 0
-13 17 -11 -261 263 0
-13 17 -11 -261 -263 0
-8 4 19 264 265 0
-8 4 19 264 -265 0
-8 4 19 -264 266 0
-8 4 19 -264 -266 0
2 6 -18 267 268 0
2 6 -18 267 -268 0
2 6 -18 -267 269 0
2 6 -18 -267 -269 0
18 3 -2 270 271 0
18 3 -2 270 -271 0
18 3 -2 -270 272 0
18 3 -2 -270 -272 0
-3 1 -5 273 274 0
-3 1 -5 273 -274 0
-3 1 -5 -273 275 0
-3 1 -5 -273 -275 0
10 1 5 276 277 0
10 1 5 276 -277 0
10 1 5 -276 278 0
10 1 5 -276 -278 0
-11 2 3 279 280 0
-11 2 3 279 -280 0
-11 2 3 -279 281 0
-11 2 3 -279 -281 0
1 -11 -2 282 283 0
1 -11 -2 282 -283 0
1 -11 -2 -282 284 0
1 -11 -2 -282 -284 0
20 1 -19 285 286 0
20 1 -19 285 -286 0
20 1 -19 -285 287 0
20 1 -19 -285 -287 0
8 -11 16 288 289 0
8 -11 16 288 -289 0
8 -11 16 -288 290 0
8 -11 16 -288 -290 0
14 -15 17 291 292 0
14 -15 17 291 -292 0
14 -15 17 -291 293 0
14 -15 17 -291 -293 0
294 295 297 301 309 0
294 295 297 301 -309 0
294 295 297 -301 310 0
294 295 297 -301 -310 0
294 295 -297 302 311 0
294 295 -297 302 -311 0
294 295 -297 -302 312 0
294 295 -297 -302 -312 0
294 -295 298 303 313 0
294 -295 298 303 -313 0
294 -295 298 -303 314 0
294 -295 298 -303 -314 0
294 -295 -298 304 315 0
294 -295 -298 304 -315 0
294 -295 -298 -304 316 0
294 -295 -298 -304 -316 0
-294 296 299 305 317 0
-294 296 299 305 -317 0
-294 296 299 -305 318 0
-294 296 299 -305 -318 0
-294 296 -299 306 319 0
-294 296 -299 306 -319 0
-294 296 -299 -306 320 0
-294 296 -299 -306 -320 0
-294 -296 300 307 321 0
-294 -296 300 307 -321 0
-294 -296 300 -307 322 0
-294 -296 300 -307 -322 0
-294 -296 -300 308 323 0
-294 -296 -300 308 -323 0
-294 -296 -300 -308 324 0
-294 -296 -300 -308 -324 0
325 326 328 332 340 0
325 326 328 332 -340 0
325 326 328 -332 341 0
325 326 328 -332 -341 0
325 326 -328 333 342 0
325 326 -328 333 -342 0
325 326 -328 -333 343 0
325 326 -328 -333 -343 0
325 -326 329 334 344 0
325 -326 329 334 -344 0
325 -326 329 -334 345 0
325 -326 329 -334 -345 0
325 -326 -329 335 346 0
325 -326 -329 335 -346 0
325 -326 -329 -335 347 0
325 -326 -329 -335 -347 0
-325 327 330 336 348 0
-325 327 330 336 -348 0
-325 327 330 -336 349 0
-325 327 330 -336 -349 0
-325 327 -330 337 350 0
-325 327 -330 337 -350 0
-325 327 -330 -337 351 0
-325 327 -330 -337 -351 0
-325 -327 331 338 352 0
-325 -327 331 338 -352 0
-325 -327 331 -338 353 0
-325 -327 331 -338 -353 0
-325 -327 -331 339 354 0
-325 -327 -331 339 -354 0
-325 -327 -331 -339 355 0
-325 -327 -331 -339 -355 0
356 357 359 363 371 0
356 357 359 363 -371 0
356 357 359 -363 372 0
356 357 359 -363 -372 0
356 357 -359 364 373 0
356 357 -359 364 -373 0
356 357 -359 -364 374 0
356 357 -359 -364 -374 0
356 -357 360 365 375 0
356 -357 360 365 -375 0
356 -357 360 -365 376 0
356 -357 360 -365 -376 0
356 -357 -360 366 377 0
356 -357 -360 366 -377 0
356 -357 -360 -366 378 0
356 -357 -360 -366 -378 0
-356 358 361 367 379 0
-356 358 361 367 -379 0
-356 358 361 -367 380 0
-356 358 361 -367 -380 0
-356 358 -361 368 381 0
-356 358 -361 368 -381 0
-356 358 -361 -368 382 0
-356 358 -361 -368 -382 0
-356 -358 362 369 383 0
-356 -358 362 369 -383 0
-356 -358 362 -369 384 0
-356 -358 362 -369 -384 0
-356 -358 -362 370 385 0
-356 -358 -362 370 -385 0
-356 -358 -362 -370 386 0
-356 -358 -362 -370 -386 0

